db/data/5574102783206654433907315361960932441.z3.out
sat
-------------------
1057.614028419
